proyfinal/src/viki/013/experimentInOfficeAgust.take6.output/a3552a38-5601-4dc4-a993-99b22cc7c8f8.als.out
Reading from standard input... Use '--help' for help.
============================[ Problem Statistics ]=============================
|                                                                             |
|  Number of variables:         87638                                         |
|  Number of clauses:          161767                                         |
|  Parse time:                   0.03 s                                       |
|                                                                             |
============================[ Search Statistics ]==============================
| Conflicts |          ORIGINAL         |          LEARNT          | Progress |
|           |    Vars  Clauses Literals |    Limit  Clauses Lit/Cl |          |
===============================================================================
|       100 |   62280   104898   262020 |    38462      100     20 | 28.935 % |
|       250 |   62280   104898   262020 |    42308      250     24 | 28.935 % |
|       475 |   62280   104898   262020 |    46539      475     49 | 28.935 % |
|       812 |   62231   104806   261809 |    51193      810     50 | 28.991 % |
|      1318 |   62230   104656   261458 |    56313     1314     53 | 28.992 % |
|      2077 |   50474    71079   178899 |    61944     2032     50 | 42.406 % |
|      3216 |   50247    70090   176396 |    68138     3155     49 | 42.665 % |
|      4924 |   50056    69337   174595 |    74952     4236     48 | 42.883 % |
|      7486 |   49942    68781   173282 |    82447     6778     48 | 43.013 % |
|     11330 |   49289    66421   167724 |    90692    10141     47 | 43.758 % |
===============================================================================
restarts              : 61
conflicts             : 14389          (8413 /sec)
decisions             : 44427          (0.00 % random) (25975 /sec)
propagations          : 19185608       (11216991 /sec)
conflict literals     : 613732         (44.80 % deleted)
Memory used           : 30.78 MB
CPU time              : 1.71041 s

UNSATISFIABLE
